StringID   Type       x          y          demand     ReadyTime  DueDate    ServiceTime
D0         d               2.471    47.133      0.000      0.000     23.983      0.000
S0         f               2.471    47.133      0.000      0.000     23.983      0.000
S1         f               6.340    73.460      0.000      0.000     23.983      0.000
S2         f              12.460    31.210      0.000      0.000     23.983      0.000
C0         c              71.541    79.675      0.078     17.806     20.348      0.167
C1         c              69.931    71.796      0.004     10.978     14.975      0.017
C2         c              52.917    30.236      0.031     17.697     20.700      0.150
C3         c               7.910    81.520      0.006     11.242     14.106      0.017
C4         c              58.263    17.917      0.089     15.179     18.661      0.033

Q Vehicle fuel tank capacity /112.5100/
C Vehicle load capacity /0.9700/
r fuel consumption rate /0.4867/
g inverse refueling rate /0.0075/
v average Velocity /43.6100/
gv charging speed /132.8400/

--------------------
instance_id /569/
number of clusters /7/
working_startTime (hour) /8.00/
working_endTime (hour) /20.70/
instance_endTime (hour) /23.98/
service_time_type /random/
demand_type /random/
instance_type /C/
instance x range /[0.0, 100.0]/
instance y range /[0.0, 100.0]/
cs_time_to_depot (hour)/[0.6101759764274394,0.43102184751556893]/
